benchmark_str_length/p2_10_8-4.dzn
Alphabet = {A,C,G,T};
ns = 10;
nc = 8;
sl = 8;
neighbours = [| I(G),I(A),I(C),I(T),I(C),Null,Null,Null | I(G),I(G),I(A),I(A),Null,Null,Null,Null | Null,Null,Null,Null,Null,Null,Null,Null | I(A),I(A),I(A),I(T),I(T),I(C),I(G),Null | I(G),I(G),I(C),I(T),I(G),I(A),I(A),Null | I(T),I(C),I(C),I(A),I(C),I(G),Null,Null | I(A),I(T),Null,Null,Null,Null,Null,Null | Null,Null,Null,Null,Null,Null,Null,Null | I(C),I(C),I(G),I(G),Null,Null,Null,Null | I(A),I(T),I(G),I(A),I(A),I(T),I(T),I(T) |];
